************************************************************************
file with basedata            : md343_.bas
initial value random generator: 27934
************************************************************************
projects                      :  1
jobs (incl. supersource/sink ):  22
horizon                       :  159
RESOURCES
  - renewable                 :  2   R
  - nonrenewable              :  2   N
  - doubly constrained        :  0   D
************************************************************************
PROJECT INFORMATION:
pronr.  #jobs rel.date duedate tardcost  MPM-Time
    1     20      0       25        1       25
************************************************************************
PRECEDENCE RELATIONS:
jobnr.    #modes  #successors   successors
   1        1          3           2   3   4
   2        3          3           7  13  17
   3        3          3           6   9  11
   4        3          3           5  15  21
   5        3          3          13  14  18
   6        3          1           8
   7        3          3          12  15  20
   8        3          3          10  12  17
   9        3          2          14  16
  10        3          2          13  20
  11        3          3          14  16  18
  12        3          1          16
  13        3          1          19
  14        3          1          17
  15        3          1          18
  16        3          2          19  21
  17        3          1          20
  18        3          1          19
  19        3          1          22
  20        3          1          22
  21        3          1          22
  22        1          0        
************************************************************************
REQUESTS/DURATIONS:
jobnr. mode duration  R 1  R 2  N 1  N 2
------------------------------------------------------------------------
  1      1     0       0    0    0    0
  2      1     5       7    9    0    2
         2     5       8    9    6    0
         3     8       7    9    5    0
  3      1     2       3   10    8    0
         2     4       2    7    4    0
         3     8       2    5    0    9
  4      1     1       7    8    8    0
         2     7       6    7    8    0
         3     9       6    7    0    6
  5      1     1       7    3    0    7
         2     2       3    3    0    5
         3     4       1    2    0    4
  6      1     3       4    6    0    6
         2     9       4    4    1    0
         3     9       3    4    0    6
  7      1     1      10    5    0    5
         2     6       9    4    0    5
         3     6      10    3    7    0
  8      1     3       3    5    0   10
         2     4       3    4    0   10
         3     9       2    3    6    0
  9      1     2       8    4    9    0
         2     6       7    4    9    0
         3     9       7    3    0    2
 10      1     4      10    6    0    8
         2     6       7    6    6    0
         3     8       3    5    0    8
 11      1     3       6   10    5    0
         2     5       5   10    0    9
         3     6       4    9    0    7
 12      1     5      10    7    7    0
         2     8       8    4    4    0
         3     9       3    4    0    6
 13      1     3      10    3    5    0
         2    10      10    2    0    9
         3    10       9    1    3    0
 14      1     2       9    6    4    0
         2     3       8    5    0    3
         3     4       6    5    0    1
 15      1     4       2    8    0    6
         2     6       2    8    8    0
         3     9       2    8    6    0
 16      1     8      10    8    0    5
         2     9       4    6    0    3
         3     9       3    7    0    4
 17      1     2       5    5    8    0
         2     6       5    4    7    0
         3     9       5    3    0    9
 18      1     1       4    9    7    0
         2     6       4    6    4    0
         3     7       4    1    4    0
 19      1     1       6    5    2    0
         2     4       6    4    1    0
         3     9       6    1    0    7
 20      1     3       4    8    0    5
         2     9       2    5    0    5
         3    10       2    5    0    4
 21      1     4       8    3    0    3
         2     7       8    3    9    0
         3     7       8    2    0    3
 22      1     0       0    0    0    0
************************************************************************
RESOURCEAVAILABILITIES:
  R 1  R 2  N 1  N 2
   23   24   81   91
************************************************************************
MAXIMAL LAGS:
from  to  type  delay
    1   12   ES      0
    1    2   ES      0
    2   12   ES      0
    1    3   ES      0
    3   12   ES      0
    1    4   ES      0
    4   12   ES      0
    1    5   ES      0
    5   12   ES      0
    1    6   ES      0
    6   12   ES      0
    1    7   ES      0
    7   12   ES      0
    1    8   ES      0
    8   12   ES      0
    1    9   ES      0
    9   12   ES      0
    1   10   ES      0
   10   12   ES      0
    1   11   ES      0
   11   12   ES      0
    1   12   ES      0
    2    7   SS      4
    2    7   SE     -3
    2    7   ES     10
    2    7   EE    -12
    2   13   SS     -8
    2   13   SE     12
    2   13   ES     12
    2   13   EE    -10
    2   17   SS     10
    2   17   SE     10
    2   17   ES     11
    2   17   EE     -2
    3    6   SS     -1
    3    6   SE     12
    3    6   ES      2
    3    6   EE     11
    3    9   SS     -6
    3    9   SE     -7
    3    9   ES     -2
    3    9   EE      2
    3   11   SS     -5
    3   11   SE      2
    3   11   ES     -1
    3   11   EE     -2
    4    5   SS     -6
    4    5   SE      9
    4    5   ES     10
    4    5   EE     -4
    4   15   SS     -4
    4   15   SE      7
    4   15   ES     11
    4   15   EE    -12
    4   21   SS     -8
    4   21   SE     -9
    4   21   ES      8
    4   21   EE      1
    5   13   SS      1
    5   13   SE      0
    5   13   ES      3
    5   13   EE    -11
    5   14   SS      4
    5   14   SE    -11
    5   14   ES      4
    5   14   EE     -1
    5   18   SS    -12
    5   18   SE      6
    5   18   ES      1
    5   18   EE    -11
    6    8   SS      4
    6    8   SE     -2
    6    8   ES      5
    6    8   EE      3
    7   15   SS     -3
    7   15   SE      6
    7   15   ES     -2
    7   15   EE      8
    7   20   SS    -10
    7   20   SE     11
    7   20   ES    -10
    7   20   EE      6
    8   10   SS    -10
    8   10   SE      5
    8   10   ES     12
    8   10   EE     -9
    8   17   SS      5
    8   17   SE     -7
    8   17   ES      4
    8   17   EE    -10
    9   14   SS      6
    9   14   SE      2
    9   14   ES      7
    9   14   EE      8
    9   16   SS     -6
    9   16   SE     12
    9   16   ES    -10
    9   16   EE     12
   10   13   SS      9
   10   13   SE      1
   10   13   ES     -4
   10   13   EE      2
   10   20   SS      2
   10   20   SE     11
   10   20   ES     -8
   10   20   EE      8
   11   14   SS     -2
   11   14   SE    -10
   11   14   ES     -7
   11   14   EE      8
   11   16   SS      6
   11   16   SE     -2
   11   16   ES      2
   11   16   EE      4
   11   18   SS     12
   11   18   SE     10
   11   18   ES     11
   11   18   EE      1
   12   16   SS    -12
   12   16   SE      0
   12   16   ES      6
   12   16   EE     -3
   13   19   SS    -12
   13   19   SE      7
   19   13   SE      0
   13   19   ES      0
   13   19   EE    -12
   14   17   SS    -12
   14   17   SE     -5
   14   17   ES     -2
   14   17   EE      1
   15   18   SS     -8
   15   18   SE     -4
   15   18   ES     -5
   15   18   EE      6
   16   19   SS      9
   16   19   SE     12
   16   19   ES     -2
   16   19   EE      5
   16   21   SS      2
   16   21   SE      8
   16   21   ES      9
   16   21   EE     -6
   17   20   SS     12
   17   20   SE      6
   17   20   ES     -1
   17   20   EE     10
   18   19   SS      6
   18   19   SE     -8
   18   19   ES     -6
   18   19   EE     12
   19   22   SS     -8
   19   22   SE     -6
   19   22   ES     -3
   19   22   EE     -7
   20   22   SS     -9
   20   22   SE    -12
   20   22   ES      5
   20   22   EE      7
   21   22   SS    -11
   21   22   SE     12
   21   22   ES     -8
   21   22   EE      5
************************************************************************
